NAME : mar50_100_4
COMMENT : Data set with 50 points
COMMENT : CIn-UFPE
COMMENT : Contributed by Marcelo Lacerda
TYPE : TSP
DIMENSION : 50
EDGE_WEIGHT_TYPE : EUC_2D
NODE_COORD_SECTION
1 17 0
2 66 75
3 81 46
4 42 71
5 43 56
6 20 20
7 41 37
8 17 39
9 6 20
10 59 68
11 16 35
12 78 21
13 23 80
14 82 39
15 94 42
16 70 52
17 32 72
18 88 44
19 46 61
20 39 40
21 82 24
22 72 54
23 98 77
24 14 66
25 67 52
26 23 8
27 13 24
28 29 27
29 84 82
30 77 73
31 47 82
32 80 36
33 84 56
34 0 22
35 80 21
36 39 15
37 52 51
38 34 57
39 95 41
40 98 65
41 21 86
42 84 89
43 43 43
44 16 17
45 61 52
46 31 31
47 97 64
48 0 68
49 26 22
50 13 3
EOF
